/* numerotation des cellules
       / \ / \ / \ / \ 
      | 1 | 2 | 3 | 4 |
     / \ / \ / \ / \ / \
    | 5 | 6 | 7 | 8 | 9 |
   / \ / \ / \ / \ / \ / \
  | 10| 11| 12| 13| 14| 15|
 / \ / \ / \ /X\ / \ / \ / \
| 16| 17| 18|XXX| 19| 20| 21|
 \ / \ / \ / \X/ \ / \ / \ / 
  | 22| 23| 24| 25| 26| 27|
   \ / \ / \ / \ / \ / \ /
    | 28| 29| 30| 31| 32|
     \ / \ / \ / \ / \ /
      | 33| 34| 35| 36| 
       \ / \ / \ / \ /       
*/

%nombre de case pre rempli
num_rempli = 10;

%cases pre rempli dans la forme [[valeur, position], [valeur, position], ...]
rempli = [|
9, 1|
13, 4|
30, 7|
6, 10|
16, 20|
2, 22|
1, 23|
36, 28|
25, 30|
21, 36|];


%nombre de liens obligatoires
num_liens = 4;

%liens obligatoires dans la forme [[position1, position2], [position1, position2], ...]
liens = [|
3, 8|
11, 17|
16, 17|
27, 32|];
